50, 675
32, 32
25, 25
9, 9
14, 14
44, 44
19, 19
34, 34
43, 43
30, 30
14, 14
9, 9
9, 9
46, 46
5, 5
45, 45
8, 8
33, 33
7, 7
18, 18
22, 22
5, 5
12, 12
37, 37
47, 47
7, 7
1, 1
40, 40
44, 44
1, 1
48, 48
23, 23
49, 49
37, 37
47, 47
44, 44
36, 36
1, 1
45, 45
38, 38
38, 38
28, 28
24, 24
43, 43
5, 5
44, 44
49, 49
17, 17
7, 7
37, 37
31, 31
